c CNF file corresponding to a (partial) station packing problem.
p cnf 3673 229
1 2 3 4 5 6 7 8 9 10 11 12 13 14 0
-1 -2 0
-1 -3 0
-1 -4 0
-1 -5 0
-1 -6 0
-1 -7 0
-1 -8 0
-1 -9 0
-1 -10 0
-1 -11 0
-1 -12 0
-1 -13 0
-1 -14 0
-2 -3 0
-2 -4 0
-2 -5 0
-2 -6 0
-2 -7 0
-2 -8 0
-2 -9 0
-2 -10 0
-2 -11 0
-2 -12 0
-2 -13 0
-2 -14 0
-3 -4 0
-3 -5 0
-3 -6 0
-3 -7 0
-3 -8 0
-3 -9 0
-3 -10 0
-3 -11 0
-3 -12 0
-3 -13 0
-3 -14 0
-4 -5 0
-4 -6 0
-4 -7 0
-4 -8 0
-4 -9 0
-4 -10 0
-4 -11 0
-4 -12 0
-4 -13 0
-4 -14 0
-5 -6 0
-5 -7 0
-5 -8 0
-5 -9 0
-5 -10 0
-5 -11 0
-5 -12 0
-5 -13 0
-5 -14 0
-6 -7 0
-6 -8 0
-6 -9 0
-6 -10 0
-6 -11 0
-6 -12 0
-6 -13 0
-6 -14 0
-7 -8 0
-7 -9 0
-7 -10 0
-7 -11 0
-7 -12 0
-7 -13 0
-7 -14 0
-8 -9 0
-8 -10 0
-8 -11 0
-8 -12 0
-8 -13 0
-8 -14 0
-9 -10 0
-9 -11 0
-9 -12 0
-9 -13 0
-9 -14 0
-10 -11 0
-10 -12 0
-10 -13 0
-10 -14 0
-11 -12 0
-11 -13 0
-11 -14 0
-12 -13 0
-12 -14 0
-13 -14 0
3657 3658 3659 3660 3661 3662 3663 3664 3665 3666 3667 3668 3669 3670 3671 3672 3673 0
-3657 -3658 0
-3657 -3659 0
-3657 -3660 0
-3657 -3661 0
-3657 -3662 0
-3657 -3663 0
-3657 -3664 0
-3657 -3665 0
-3657 -3666 0
-3657 -3667 0
-3657 -3668 0
-3657 -3669 0
-3657 -3670 0
-3657 -3671 0
-3657 -3672 0
-3657 -3673 0
-3658 -3659 0
-3658 -3660 0
-3658 -3661 0
-3658 -3662 0
-3658 -3663 0
-3658 -3664 0
-3658 -3665 0
-3658 -3666 0
-3658 -3667 0
-3658 -3668 0
-3658 -3669 0
-3658 -3670 0
-3658 -3671 0
-3658 -3672 0
-3658 -3673 0
-3659 -3660 0
-3659 -3661 0
-3659 -3662 0
-3659 -3663 0
-3659 -3664 0
-3659 -3665 0
-3659 -3666 0
-3659 -3667 0
-3659 -3668 0
-3659 -3669 0
-3659 -3670 0
-3659 -3671 0
-3659 -3672 0
-3659 -3673 0
-3660 -3661 0
-3660 -3662 0
-3660 -3663 0
-3660 -3664 0
-3660 -3665 0
-3660 -3666 0
-3660 -3667 0
-3660 -3668 0
-3660 -3669 0
-3660 -3670 0
-3660 -3671 0
-3660 -3672 0
-3660 -3673 0
-3661 -3662 0
-3661 -3663 0
-3661 -3664 0
-3661 -3665 0
-3661 -3666 0
-3661 -3667 0
-3661 -3668 0
-3661 -3669 0
-3661 -3670 0
-3661 -3671 0
-3661 -3672 0
-3661 -3673 0
-3662 -3663 0
-3662 -3664 0
-3662 -3665 0
-3662 -3666 0
-3662 -3667 0
-3662 -3668 0
-3662 -3669 0
-3662 -3670 0
-3662 -3671 0
-3662 -3672 0
-3662 -3673 0
-3663 -3664 0
-3663 -3665 0
-3663 -3666 0
-3663 -3667 0
-3663 -3668 0
-3663 -3669 0
-3663 -3670 0
-3663 -3671 0
-3663 -3672 0
-3663 -3673 0
-3664 -3665 0
-3664 -3666 0
-3664 -3667 0
-3664 -3668 0
-3664 -3669 0
-3664 -3670 0
-3664 -3671 0
-3664 -3672 0
-3664 -3673 0
-3665 -3666 0
-3665 -3667 0
-3665 -3668 0
-3665 -3669 0
-3665 -3670 0
-3665 -3671 0
-3665 -3672 0
-3665 -3673 0
-3666 -3667 0
-3666 -3668 0
-3666 -3669 0
-3666 -3670 0
-3666 -3671 0
-3666 -3672 0
-3666 -3673 0
-3667 -3668 0
-3667 -3669 0
-3667 -3670 0
-3667 -3671 0
-3667 -3672 0
-3667 -3673 0
-3668 -3669 0
-3668 -3670 0
-3668 -3671 0
-3668 -3672 0
-3668 -3673 0
-3669 -3670 0
-3669 -3671 0
-3669 -3672 0
-3669 -3673 0
-3670 -3671 0
-3670 -3672 0
-3670 -3673 0
-3671 -3672 0
-3671 -3673 0
-3672 -3673 0
